n = 100;
C = 26409;
w = [809,745,39,739,463,394,713,521,795,689,277,751,640,872,892,203,530,342,287,884,275,405,800,662,943,362,607,961,863,921,190,274,425,934,685,513,110,541,543,17,787,331,371,796,24,907,20,28,956,778,81,426,712,43,398,467,7,779,825,942,5,686,630,384,557,289,139,200,560,614,172,971,557,891,345,169,652,274,387,806,698,811,947,258,104,350,563,802,891,938,426,252,550,384,780,607,283,152,640,801];
p = [788,779,-55,813,518,330,699,571,894,591,345,795,626,887,953,141,624,294,304,785,326,392,798,742,929,280,509,915,798,963,214,338,444,922,596,427,81,596,448,-61,761,283,301,724,75,916,107,-44,941,816,-12,332,686,46,467,492,-16,751,801,899,28,658,592,377,542,200,137,237,540,533,262,1040,621,886,251,202,718,181,325,729,701,872,899,158,134,281,635,737,888,957,447,199,635,454,787,653,225,249,584,718];
